outputs/case_64.model.txt
subject_prohibits_processing = False
contract_relation = True
appropriate_security_measures = True
subject_consent = False
legal_provision = False
publicly_disclosed_data = False
academic_research_public_interest = True
data_anonymized = True
necessary_for_public_interest = False
no_harm_to_subject_rights = False
is_non_public_agency = True
legal_provision_for_use_outside_purpose = False
benefit_subject = False
subject_consent_for_use = False
prevent_major_harm_to_others = False
prevent_life_or_property_danger = False
public_agency_or_academic = True
use_within_collection_purpose = False
necessary_for_public_interest_use = False
is_agent = True
article_6_1_compliance = True
article_19_violation = False
is_first_marketing = False
provided_rejection_method = False
paid_required_fee = False
marketing_first_notice_ok = True
international_transfer_restriction_compliance = True
article_47_violation = False
article_20_violation = False
is_publicly_listed = False
has_certain_scale = False
internal_control_executed_ok = True
article_165_3_violation = False
is_broker = False
is_notary = False
single_license_only_ok = True
penalty = False
collection_purpose_valid = True
processing_prohibition_notified = False
processing_stopped_or_deleted = False
processing_prohibition_compliance = True
internal_control_executed = True
solicitation_handling_system_executed = True
marketing_refusal_received = False
marketing_stopped = False
marketing_refusal_handling_ok = True
has_fixed_office = False
has_dedicated_account_book = False
fixed_office_and_account_book_ok = False
internal_control_compliance = True
audit_system_executed = True
internal_control_established = True
solicitation_handling_system_established = True
internal_control_required_ok = True
use_within_purpose_ok = True
audit_system_established = True